units metal
boundary	p p p
atom_style	atomic
atom_modify     map array sort 0 0.0

read_data	test.data
#read_data	bulk.lmp

#replicate 4 4 4 # for larger system size test

pair_style      milady
pair_coeff	* * Fe.milady.test  Fe Fe
#pair_coeff	* * Fe.milady  Fe
#pair_coeff	* * Fe.milady  Ta Ti V  W

displace_atoms all random 0.1 0.1 0.1 2342 units box
thermo 1
run 0

fix seal all nve
run 20
